NAME : OMNETRUN
COMMENT : 524.61
TYPE : CVRP
DIMENSION : 21
EDGE_WEIGHT_TYPE : EUC_2D
CAPACITY : 21
NODE_COORD_SECTION
1 0.107093 -0.77924
2 189.744 -1044.99
3 183.375 -2372.44
4 65.3106 -2973.98
5 83.0216 -4627.27
6 103.336 -5404.87
7 493.405 -554.229
8 259.343 -1737.95
9 408.666 -2800.24
10 390.954 -3433.83
11 395.884 -4039.14
12 657.53 -1207.27
13 688.284 -1821.54
14 547.839 -2329.17
15 535.666 -4567.9
16 624.219 -4941.19
17 521.826 -5772.2
18 824.686 -235.281
19 900.865 -711.785
20 898.899 -2444.58
21 837.616 -3222.7
DEMAND_SECTION
1 0
2 1
3 1
4 1
5 1
6 1
7 1
8 1
9 1
10 1
11 1
12 1
13 1
14 1
15 1
16 1
17 1
18 1
19 1
20 1
21 1
DEPOT_SECTION
1
-1
EOF
